! RI-MP2 def2-TZVP def2/JK RIJK def2-TZVP/C
%maxcore 8000
%method
FrozenCore FC_ELECTRONS
end

*xyz 0 3
O 0.0 0.0 0.0
*
