! CCSD 6-31G TightSCF SCFConvForced
%maxcore 5000
*xyz 0 2
F 0.0 0.0 0.0
*
