! DLPNO-CCSD cc-pVDZ def2/JK RIJK def2-SVP/C
%maxcore 8000
%method
FrozenCore FC_ELECTRONS
end

%mdci
   TCutPairs 1e-6
   printlevel 4
end

%loc
LocMet AHFB
OCC true
end

*xyz 0 2
H 0.0 0.0 0.0
*
