! DLPNO-CCSD(T) cc-pVTZ cc-pVTZ/JK RIJK cc-pVTZ/C
%maxcore 8000
%method
FrozenCore FC_ELECTRONS
end

%mdci
   TCutPairs 1e-6
   printlevel 4
end

%loc
LocMet AHFB
OCC true
end

*xyz 0 2
H 0.0 0.0 0.0
*
