! RI-MP2 6-31+G** def2/JK RIJK def2-SVP/C
%maxcore 8000
%method
FrozenCore FC_ELECTRONS
end

*xyz 0 2
H 0.0 0.0 0.0
*
