! MP2 6-31G TightSCF SCFConvForced
%maxcore 5000
*xyz 0 4
N 0.0 0.0 0.0
*
