! RI-MP2 cc-pVDZ def2/JK RIJK def2-SVP/C
%maxcore 8000
%method
FrozenCore FC_ELECTRONS
end

*xyz 0 4
N 0.0 0.0 0.0
*
