! RI-MP2 cc-pVTZ cc-pVTZ/JK RIJK cc-pVTZ/C
%maxcore 8000
%method
FrozenCore FC_ELECTRONS
end

*xyz 0 4
N 0.0 0.0 0.0
*
